p cnf 10 37
6 -9 -8 0
-6 -4 -3 -9 7 -2 -10 -1 -5 0
8 -6 5 7 -10 0
-4 2 -5 0
5 9 -7 -8 0
3 10 0
-7 1 0
-9 5 -4 -2 8 -7 -6 -10 0
9 -10 6 -7 8 -5 -3 4 2 1 0
-2 -8 7 0
-5 -1 0
3 6 0
2 -8 -6 0
-10 6 -2 -9 0
-3 5 -10 0
-4 6 -10 0
-5 -10 -3 -1 0
-9 -6 0
-9 6 0
-1 8 0
-1 7 -5 0
9 -2 0
-10 -8 1 9 -5 -2 -7 -4 0
9 3 -1 -2 0
-10 8 7 0
-8 2 0
-9 -4 7 0
-5 -4 -7 -2 -10 8 0
3 8 -2 4 9 0
-8 -3 -10 7 0
7 -2 0
4 10 -2 0
5 -8 -3 1 0
-8 -3 0
-5 -9 -4 8 -1 -6 0
-8 7 10 3 0
-2 1 -3 0
